42 396
1 3 4 5 6 10 11 15 17 18 19 22 24 31 33 40 41
0 2 3 7 9 10 11 13 15 17 18 19 21 22 23 25 26 28 29 34 36 37 38 39
1 5 7 9 11 12 15 17 21 22 24 26 27 28 29 31 33 35 38 39
0 1 6 10 12 14 15 16 21 23 24 26 30 33 34 35 36 41
0 7 8 9 12 20 24 25 27 32 34 41
0 2 9 10 11 12 13 15 19 20 21 23 25 26 27 29 30 31 34 35 41
0 3 7 8 11 13 14 16 17 18 22 23 24 26 27 28 29 30 32 33
1 2 4 6 10 12 13 14 16 17 22 24 28 31 32 33 34 35 37
4 6 10 11 14 16 17 19 20 21 24 29 31 32 34 35 36 37 40 41
1 2 4 5 12 14 16 17 19 21 23 24 25 26 27 28 29 35 36 40
0 1 3 5 7 8 13 17 23 25 26 28 30 36 37 38 41
0 1 2 5 6 8 13 14 16 17 18 19 20 23 24 25 28 29 34 39
2 3 4 5 7 9 16 17 18 21 22 23 24 29 30 33 34 36 40
1 5 6 7 10 11 15 16 18 21 22 23 24 25 27 28 31 32 35 37 38 40 41
3 6 7 8 9 11 16 19 20 24 25 27 31 34 39 41
0 1 2 3 5 13 17 18 21 23 24 25 27 29 30 32 33 37 38 39 40 41
3 6 7 8 9 11 12 13 14 19 20 25 27 28 29 31 36 38 39 40
0 1 2 6 7 8 9 10 11 12 15 23 25 26 29 32 38 41
0 1 6 11 12 13 15 19 23 24 25 29 32 36 37 38
0 1 5 8 9 11 14 16 18 20 21 23 25 26 27 30 31 32 33 39
4 5 8 11 14 16 19 21 22 24 26 27 28 29 30 34 38
1 2 3 5 8 9 12 13 15 19 20 22 23 24 25 27 32 33 34 38 39
0 1 2 6 7 12 13 20 21 25 28 32 33 34 36 37 38 39 40 41
1 3 5 6 9 10 11 12 13 15 17 18 19 21 26 27 28 30 31 32 34 38 40
0 2 3 4 6 7 8 9 11 12 13 14 15 18 20 21 27 29 32 34 39 41
1 4 5 9 10 11 13 14 15 16 17 18 19 21 22 27 31 33 35 36 39 41
1 2 3 5 6 9 10 17 19 20 23 30 31 34 37 40
2 4 5 6 9 13 14 15 16 19 20 21 23 24 25 28 29 31 38 40
1 2 6 7 9 10 11 13 16 20 22 23 27 29 32 34 36 38 39 40
1 2 5 6 8 9 11 12 15 16 17 18 20 24 27 28 31 37 38 39 40
3 5 6 10 12 15 19 20 23 26 32 36 38 40
0 2 5 7 8 13 14 16 19 23 25 26 27 29 35 37 38 40
4 6 7 8 13 15 17 18 19 21 22 23 24 28 30 36 40 41
0 2 3 6 7 12 15 19 21 22 25 35 36 37 38
1 3 4 5 7 8 11 12 14 20 21 22 23 24 26 28 39
2 3 5 7 8 9 13 25 31 33 36 38 39 40 41
1 3 8 9 10 12 16 18 22 25 28 30 32 33 35 37 38 39 40 41
1 7 8 10 13 15 18 22 26 29 31 33 36 40
1 2 10 13 15 16 17 18 20 21 22 23 27 28 29 30 31 33 35 36 39
1 2 11 14 15 16 19 21 22 24 25 28 29 34 35 36 38 41
0 8 9 12 13 15 16 22 23 26 27 28 29 30 31 32 35 36 37 41
0 3 4 5 8 10 13 14 15 17 22 24 25 32 35 36 39 40
